SAT
91 -26 95 99 54 -68 13 38 -50 -52 66 74 67 -71 -20 -94 -45 -98 8 5 -80 -53 28 27 -36 -24 31 4 -32 -70 -42 -96 63 -75 57 87 -76 -48 3 -22 -21 49 14 19 -29 -7 61 81 97 -100 40 60 41 17 -88 34 -62 9 89 -93 69 -72 -58 -79 -84 6 -59 92 35 -85 33 86 18 -44 37 51 77 -78 -65 73 23 -16 -25 11 -46 -82 -1 47 64 -56 -90 83 43 55 15 -12 -10 2 30 39 0
